
Log started (V12.7.0.0) Wed Feb  7 18:15:15 2018


Problem 'testFile.lp' read.
Read time = 0.27 sec. (13.09 ticks)
New value for mixed integer optimality gap tolerance: 0.1
New value for time limit in seconds: 3600
Tried aggregator 3 times.
MIP Presolve eliminated 65760 rows and 23651 columns.
MIP Presolve modified 20672 coefficients.
Aggregator did 2453 substitutions.
Reduced MIP has 53309 rows, 30374 columns, and 153914 nonzeros.
Reduced MIP has 27901 binaries, 832 generals, 0 SOSs, and 0 indicators.
Presolve time = 0.44 sec. (287.90 ticks)
Found incumbent of value 500.000000 after 0.52 sec. (320.22 ticks)
Probing fixed 62 vars, tightened 6 bounds.
Probing time = 4.08 sec. (609.22 ticks)
Tried aggregator 3 times.
MIP Presolve eliminated 14248 rows and 11544 columns.
MIP Presolve modified 1405 coefficients.
Aggregator did 147 substitutions.
Reduced MIP has 38914 rows, 18683 columns, and 119631 nonzeros.
Reduced MIP has 16359 binaries, 687 generals, 0 SOSs, and 0 indicators.
Presolve time = 0.45 sec. (258.76 ticks)
Probing time = 1.08 sec. (156.91 ticks)
Tried aggregator 3 times.
MIP Presolve eliminated 9473 rows and 8349 columns.
MIP Presolve modified 503 coefficients.
Aggregator did 403 substitutions.
Reduced MIP has 29038 rows, 9931 columns, and 95024 nonzeros.
Reduced MIP has 7987 binaries, 326 generals, 0 SOSs, and 0 indicators.
Presolve time = 0.33 sec. (174.41 ticks)
Probing time = 0.33 sec. (52.70 ticks)
Tried aggregator 2 times.
MIP Presolve eliminated 3826 rows and 2748 columns.
MIP Presolve modified 510 coefficients.
Aggregator did 326 substitutions.
Reduced MIP has 24886 rows, 6857 columns, and 84482 nonzeros.
Reduced MIP has 5326 binaries, 0 generals, 0 SOSs, and 0 indicators.
Presolve time = 0.16 sec. (101.26 ticks)
Probing time = 0.04 sec. (6.72 ticks)
Tried aggregator 1 time.
MIP Presolve modified 172 coefficients.
Reduced MIP has 24886 rows, 6857 columns, and 84482 nonzeros.
Reduced MIP has 5326 binaries, 0 generals, 0 SOSs, and 0 indicators.
Presolve time = 0.07 sec. (39.91 ticks)
Probing time = 0.03 sec. (6.83 ticks)
Clique table members: 10193.
MIP emphasis: balance optimality and feasibility.
MIP search method: dynamic search.
Parallel mode: deterministic, using up to 4 threads.
Root relaxation solution time = 0.10 sec. (54.31 ticks)

        Nodes                                         Cuts/
   Node  Left     Objective  IInf  Best Integer    Best Bound    ItCnt     Gap

*     0+    0                          500.0000       40.0000            92.00%
      0     0      120.0000    14      500.0000      120.0000       39   76.00%
      0     0      140.0000    20      500.0000     Cuts: 396      203   72.00%
      0     0      160.0000    10      500.0000     Cuts: 221      308   68.00%
      0     0      160.0000    12      500.0000      Cuts: 20      316   68.00%
      0     0      160.0000    12      500.0000      Cuts: 42      325   68.00%
      0     2      160.0000    12      500.0000      160.0000      325   68.00%
Elapsed time = 9.57 sec. (2530.55 ticks, tree = 0.01 MB, solutions = 1)
     49    26      200.0000    14      500.0000      160.0000      994   68.00%
*    57+   44                          280.0000      160.0000            42.86%
    132    96      200.0000    14      280.0000      160.0000     3008   42.86%
    241   187      200.0000    10      280.0000      160.0000     5165   42.86%
    362   286      260.0000     8      280.0000      160.0000     5945   42.86%
    486   376      240.0000    12      280.0000      180.0000     7031   35.71%
    610   492      260.0000     8      280.0000      180.0000     8336   35.71%
    737   620      240.0000    14      280.0000      180.0000     9892   35.71%
    888   763      240.0000    10      280.0000      180.0000    10975   35.71%
   1029   860      240.0000    12      280.0000      180.0000    11418   35.71%
   1229  1074      180.0000     6      280.0000      180.0000    14289   35.71%
Elapsed time = 23.26 sec. (8796.52 ticks, tree = 12.33 MB, solutions = 2)
   1288    64      200.0000    18      280.0000      180.0000    15052   35.71%
   1383   124      200.0000    22      280.0000      180.0000    16138   35.71%
   1543   274      230.0000    40      280.0000      192.0000    17911   31.43%
   1704   376      240.0000    24      280.0000      200.0000    20345   28.57%
   1894   536      220.0000     6      280.0000      200.0000    24266   28.57%
   2088   674      240.0000    18      280.0000      200.0000    27574   28.57%
   2266   812      230.0000     8      280.0000      200.0000    31982   28.57%
   2473   973      220.0000    10      280.0000      200.0000    39465   28.57%
   2782  1159      220.0000    18      280.0000      200.0000    45089   28.57%
   3096  1508      220.0000    20      280.0000      200.0000    51926   28.57%
Elapsed time = 56.37 sec. (18420.03 ticks, tree = 19.94 MB, solutions = 2)
   3539  1780      240.0000    36      280.0000      200.0000    58707   28.57%
   3966  2263      240.0000    16      280.0000      200.0000    63504   28.57%
   4426  2590      220.0000    10      280.0000      200.0000    71397   28.57%
   4960  3116      200.0000    20      280.0000      200.0000    78616   28.57%
   5421  3459      220.0000     4      280.0000      200.0000    83400   28.57%
   5811  3903      220.5941    28      280.0000      200.0000    90631   28.57%
   6228  4223      220.7921    14      280.0000      200.0000    98305   28.57%
   6556  4586      240.0000    12      280.0000      200.0000   103937   28.57%
   7132  4948      220.5941    38      280.0000      200.0000   111468   28.57%
   7657  5505      226.6667    34      280.0000      200.0000   122054   28.57%
Elapsed time = 98.40 sec. (27966.51 ticks, tree = 41.30 MB, solutions = 2)
   8074  5754      240.5941    36      280.0000      200.0000   128920   28.57%
   8523  6240      240.5941    36      280.0000      200.0000   142682   28.57%
   9040  6473      220.0000    16      280.0000      200.0000   149223   28.57%
   9622  6952      230.0000    38      280.0000      200.0000   160245   28.57%
  10221  7525      230.0000    20      280.0000      200.0000   168225   28.57%
  10803  8055      220.0000    30      280.0000      200.0000   180689   28.57%
  11406  8522      250.0000    16      280.0000      200.0000   190886   28.57%
  11942  8886      240.0000     8      280.0000      200.0000   200157   28.57%
  12500  9450      230.0000    32      280.0000      200.0000   213856   28.57%
  13108  9790      260.0000    18      280.0000      200.0000   220905   28.57%
Elapsed time = 126.21 sec. (37523.34 ticks, tree = 65.20 MB, solutions = 2)
  13654 10258      200.0000    16      280.0000      200.0000   232329   28.57%
  14063 10741      200.0000    10      280.0000      200.0000   244337   28.57%
  14454 11135      240.0000    27      280.0000      200.0000   251462   28.57%
* 14484 11099      integral     0      260.0000      200.0000   250656   23.08%
  14923 10178      220.0000    12      260.0000      200.0000   257344   23.08%
  15360 10568      200.0000    18      260.0000      200.0000   270467   23.08%
  15661 10743      220.0000    22      260.0000      200.0000   274862   23.08%
  16153 10986      220.0000    14      260.0000      200.0000   283980   23.08%
  16742 11116      220.0000    14      260.0000      200.0000   287460   23.08%
  17054 11556      220.0000    10      260.0000      200.0000   299642   23.08%
  17459 11811      205.0000    26      260.0000      200.0000   309364   23.08%
Elapsed time = 154.73 sec. (47085.72 ticks, tree = 70.81 MB, solutions = 3)
  18035 11925    infeasible            260.0000      200.0000   313608   23.08%
  18576 12579      220.0000    10      260.0000      200.0000   329144   23.08%
  19083 12831      220.0000    22      260.0000      200.0000   335690   23.08%
